4	143	143	0	15	15
5	144	103	0	16	16
6	236	184	0	16	16
7	279	240	0	15	15
8	267	246	0	16	16
9	261	225	0	31	31
10	385	241	0	16	16
11	438	308	0	202	202
12	377	307	0	16	16
13	541	342	0	31	31
14	551	416	0	31	31
15	675	399	0	46	46
16	560	409	0	32	32
17	656	439	0	93	93
18	634	446	0	203	203
19	875	491	0	78	78
